Route #1: 1 3 35 45 49 41 21 28 38 13 10 34 50 1
Route #2: 1 7 32 31 15 12 44 37 25 4 23 1
Route #3: 1 8 26 5 19 48 27 1
Route #4: 1 17 39 47 24 11 1
Route #5: 1 43 18 9 22 2 36 1
Route #6: 1 16 40 46 42 14 1
Route #7: 1 30 20 33 29 1
Route #8: 1 6 1
cost 1438.0258505805202
